letting initialStacks = [5, 32, 1, 35, 51, 2, 49, 40, 22, 10, 33, 25, 38, 20, 14, 46, 44, 9, 28, 41, 21, 23, 3, 47, 17, 27, 15, 37, 12, 31, 8, 30, 18, 19, 16, 50, 45, 29, 26, 4, 6, 34, 43, 24, 7, 13, 39, 11, 48, 36, 42]
